NAME : X-n181-k23
COMMENT : "Generated by Uchoa, Pecin, Pessoa, Poggi, Subramanian, and Vidal (2013)"
TYPE : CVRP
DIMENSION : 181
EDGE_WEIGHT_TYPE : EUC_2D
CAPACITY : 8
NODE_COORD_SECTION
1 894 510
2 463 887
3 704 177
4 424 368
5 420 800
6 492 610
7 607 749
8 455 819
9 343 457
10 387 275
11 466 653
12 607 348
13 428 546
14 764 848
15 403 298
16 315 738
17 457 902
18 597 584
19 219 552
20 526 359
21 414 340
22 398 401
23 579 780
24 518 563
25 531 597
26 501 827
27 687 200
28 670 234
29 488 981
30 673 222
31 359 256
32 537 675
33 788 95
34 433 820
35 397 770
36 444 799
37 367 288
38 253 774
39 570 853
40 379 843
41 388 736
42 565 785
43 608 193
44 430 657
45 775 142
46 721 600
47 434 876
48 683 311
49 592 740
50 500 315
51 428 915
52 710 258
53 709 272
54 426 803
55 409 639
56 535 572
57 502 916
58 528 728
59 351 371
60 657 782
61 493 265
62 751 112
63 469 594
64 720 165
65 463 624
66 751 96
67 496 833
68 565 459
69 471 361
70 448 969
71 361 559
72 529 582
73 515 809
74 497 434
75 429 879
76 483 715
77 264 574
78 793 916
79 448 386
80 325 199
81 327 370
82 484 861
83 432 873
84 412 853
85 641 155
86 712 163
87 456 612
88 301 921
89 480 400
90 700 165
91 690 213
92 478 811
93 665 56
94 430 368
95 414 943
96 709 235
97 296 297
98 380 773
99 459 423
100 498 910
101 464 939
102 677 704
103 420 381
104 398 872
105 554 512
106 486 614
107 584 809
108 429 336
109 461 529
110 470 360
111 494 769
112 407 661
113 687 711
114 454 745
115 593 471
116 537 648
117 666 111
118 452 797
119 430 742
120 481 958
121 636 741
122 405 576
123 666 234
124 603 683
125 473 466
126 378 867
127 611 739
128 342 688
129 446 280
130 585 888
131 496 418
132 711 27
133 791 198
134 660 828
135 414 839
136 504 592
137 665 921
138 448 320
139 550 637
140 637 758
141 743 166
142 504 869
143 708 432
144 664 343
145 499 493
146 878 706
147 396 920
148 275 924
149 727 669
150 728 203
151 367 739
152 444 808
153 755 303
154 445 864
155 561 848
156 597 660
157 386 700
158 652 240
159 344 301
160 209 369
161 571 812
162 454 353
163 497 781
164 697 220
165 296 787
166 517 506
167 409 893
168 339 886
169 518 788
170 719 99
171 607 654
172 218 312
173 533 847
174 523 938
175 598 705
176 481 772
177 461 431
178 375 722
179 460 681
180 524 610
181 771 752
PICKUP_AND_DELIVERY_SECTION
1 0 0 1000000000 0 0 0
2 0 0 1000000000 0 0 1
3 0 0 1000000000 0 0 1
4 0 0 1000000000 0 0 1
5 0 0 1000000000 0 1 0
6 0 0 1000000000 0 0 1
7 0 0 1000000000 0 0 1
8 0 0 1000000000 0 0 1
9 0 0 1000000000 0 1 0
10 0 0 1000000000 0 0 1
11 0 0 1000000000 0 0 1
12 0 0 1000000000 0 0 1
13 0 0 1000000000 0 1 0
14 0 0 1000000000 0 0 1
15 0 0 1000000000 0 0 1
16 0 0 1000000000 0 0 1
17 0 0 1000000000 0 1 0
18 0 0 1000000000 0 0 1
19 0 0 1000000000 0 0 1
20 0 0 1000000000 0 0 1
21 0 0 1000000000 0 1 0
22 0 0 1000000000 0 0 1
23 0 0 1000000000 0 0 1
24 0 0 1000000000 0 0 1
25 0 0 1000000000 0 1 0
26 0 0 1000000000 0 0 1
27 0 0 1000000000 0 0 1
28 0 0 1000000000 0 0 1
29 0 0 1000000000 0 1 0
30 0 0 1000000000 0 0 1
31 0 0 1000000000 0 0 1
32 0 0 1000000000 0 0 1
33 0 0 1000000000 0 1 0
34 0 0 1000000000 0 0 1
35 0 0 1000000000 0 0 1
36 0 0 1000000000 0 0 1
37 0 0 1000000000 0 1 0
38 0 0 1000000000 0 0 1
39 0 0 1000000000 0 0 1
40 0 0 1000000000 0 0 1
41 0 0 1000000000 0 1 0
42 0 0 1000000000 0 0 1
43 0 0 1000000000 0 0 1
44 0 0 1000000000 0 0 1
45 0 0 1000000000 0 1 0
46 0 0 1000000000 0 0 1
47 0 0 1000000000 0 0 1
48 0 0 1000000000 0 0 1
49 0 0 1000000000 0 1 0
50 0 0 1000000000 0 0 1
51 0 0 1000000000 0 0 1
52 0 0 1000000000 0 0 1
53 0 0 1000000000 0 1 0
54 0 0 1000000000 0 0 1
55 0 0 1000000000 0 0 1
56 0 0 1000000000 0 0 1
57 0 0 1000000000 0 1 0
58 0 0 1000000000 0 0 1
59 0 0 1000000000 0 0 1
60 0 0 1000000000 0 0 1
61 0 0 1000000000 0 1 0
62 0 0 1000000000 0 0 1
63 0 0 1000000000 0 0 1
64 0 0 1000000000 0 0 1
65 0 0 1000000000 0 1 0
66 0 0 1000000000 0 0 1
67 0 0 1000000000 0 0 1
68 0 0 1000000000 0 0 1
69 0 0 1000000000 0 1 0
70 0 0 1000000000 0 0 1
71 0 0 1000000000 0 0 1
72 0 0 1000000000 0 0 1
73 0 0 1000000000 0 1 0
74 0 0 1000000000 0 0 1
75 0 0 1000000000 0 0 1
76 0 0 1000000000 0 0 1
77 0 0 1000000000 0 1 0
78 0 0 1000000000 0 0 1
79 0 0 1000000000 0 0 1
80 0 0 1000000000 0 0 1
81 0 0 1000000000 0 1 0
82 0 0 1000000000 0 0 1
83 0 0 1000000000 0 0 1
84 0 0 1000000000 0 0 1
85 0 0 1000000000 0 1 0
86 0 0 1000000000 0 0 1
87 0 0 1000000000 0 0 1
88 0 0 1000000000 0 0 1
89 0 0 1000000000 0 1 0
90 0 0 1000000000 0 0 1
91 0 0 1000000000 0 0 1
92 0 0 1000000000 0 0 1
93 0 0 1000000000 0 1 0
94 0 0 1000000000 0 0 1
95 0 0 1000000000 0 0 1
96 0 0 1000000000 0 0 1
97 0 0 1000000000 0 1 0
98 0 0 1000000000 0 0 1
99 0 0 1000000000 0 0 1
100 0 0 1000000000 0 0 1
101 0 0 1000000000 0 1 0
102 0 0 1000000000 0 0 1
103 0 0 1000000000 0 0 1
104 0 0 1000000000 0 0 1
105 0 0 1000000000 0 1 0
106 0 0 1000000000 0 0 1
107 0 0 1000000000 0 0 1
108 0 0 1000000000 0 0 1
109 0 0 1000000000 0 1 0
110 0 0 1000000000 0 0 1
111 0 0 1000000000 0 0 1
112 0 0 1000000000 0 0 1
113 0 0 1000000000 0 1 0
114 0 0 1000000000 0 0 1
115 0 0 1000000000 0 0 1
116 0 0 1000000000 0 0 1
117 0 0 1000000000 0 1 0
118 0 0 1000000000 0 0 1
119 0 0 1000000000 0 0 1
120 0 0 1000000000 0 0 1
121 0 0 1000000000 0 1 0
122 0 0 1000000000 0 0 1
123 0 0 1000000000 0 0 1
124 0 0 1000000000 0 0 1
125 0 0 1000000000 0 1 0
126 0 0 1000000000 0 0 1
127 0 0 1000000000 0 0 1
128 0 0 1000000000 0 0 1
129 0 0 1000000000 0 1 0
130 0 0 1000000000 0 0 1
131 0 0 1000000000 0 0 1
132 0 0 1000000000 0 0 1
133 0 0 1000000000 0 1 0
134 0 0 1000000000 0 0 1
135 0 0 1000000000 0 0 1
136 0 0 1000000000 0 0 1
137 0 0 1000000000 0 1 0
138 0 0 1000000000 0 0 1
139 0 0 1000000000 0 0 1
140 0 0 1000000000 0 0 1
141 0 0 1000000000 0 1 0
142 0 0 1000000000 0 0 1
143 0 0 1000000000 0 0 1
144 0 0 1000000000 0 0 1
145 0 0 1000000000 0 1 0
146 0 0 1000000000 0 0 1
147 0 0 1000000000 0 0 1
148 0 0 1000000000 0 0 1
149 0 0 1000000000 0 1 0
150 0 0 1000000000 0 0 1
151 0 0 1000000000 0 0 1
152 0 0 1000000000 0 0 1
153 0 0 1000000000 0 1 0
154 0 0 1000000000 0 0 1
155 0 0 1000000000 0 0 1
156 0 0 1000000000 0 0 1
157 0 0 1000000000 0 1 0
158 0 0 1000000000 0 0 1
159 0 0 1000000000 0 0 1
160 0 0 1000000000 0 0 1
161 0 0 1000000000 0 1 0
162 0 0 1000000000 0 0 1
163 0 0 1000000000 0 0 1
164 0 0 1000000000 0 0 1
165 0 0 1000000000 0 1 0
166 0 0 1000000000 0 0 1
167 0 0 1000000000 0 0 1
168 0 0 1000000000 0 0 1
169 0 0 1000000000 0 1 0
170 0 0 1000000000 0 0 1
171 0 0 1000000000 0 0 1
172 0 0 1000000000 0 0 1
173 0 0 1000000000 0 1 0
174 0 0 1000000000 0 0 1
175 0 0 1000000000 0 0 1
176 0 0 1000000000 0 0 1
177 0 0 1000000000 0 1 0
178 0 0 1000000000 0 0 1
179 0 0 1000000000 0 0 1
180 0 0 1000000000 0 0 1
181 0 0 1000000000 0 1 0
